All .csv files have been loaded successfully.


Simulation Parameters:
------------------------------------------------------
Initial Time: 05:30:00
Period Length: 5 minutes
Total Operation Hours: 6 hours

Minimum Number of Crew Breaks (nc): 1
Crew Break Duration (Dc): 9 minutes
Maximum Separation Time for Crew Breaks (Tc): 360 minutes

Charging Rate (rv_plus): 15.91% per period
Plugging/Unplugging Time (pc): 2 minutes
------------------------------------------------------

Vset, Wset, Tset, Jset, and Dset have been defined.

Using license file /usr/local/gurobi/9.1.2/gurobi.lic
Set parameter TokenServer to value gurobi.lic.sydney.edu.au
All results matrices have been loaded from files with prefix "6htest_simplified_B".

Results loaded successfully.

All constraintrs are ready.

Starting optimization with 0 variables and 0 constraints.

Parameter OutputFlag unchanged
   Value: 1  Min: 0  Max: 1  Default: 1
Changed value of parameter InfUnbdInfo to 1
   Prev: 0  Min: 0  Max: 1  Default: 0
Changed value of parameter Presolve to 2
   Prev: -1  Min: -1  Max: 2  Default: -1
Changed value of parameter ScaleFlag to 1
   Prev: -1  Min: -1  Max: 3  Default: -1
Changed value of parameter Threads to 64
   Prev: 0  Min: 0  Max: 1024  Default: 0
Changed value of parameter MIPGap to 0.9
   Prev: 0.0001  Min: 0.0  Max: inf  Default: 0.0001
Changed value of parameter Heuristics to 0.5
   Prev: 0.05  Min: 0.0  Max: 1.0  Default: 0.05
Gurobi Optimizer version 9.1.2 build v9.1.2rc0 (linux64)
Thread count: 48 physical cores, 48 logical processors, using up to 64 threads

Warning: Thread count (64) is larger than processor count (48)
         Reduce the value of the Threads parameter to improve performance

Optimize a model with 329400 rows, 151497 columns and 63909706 nonzeros
Model fingerprint: 0x1e57a750
Model has 1656 quadratic constraints
Variable types: 1944 continuous, 149553 integer (149553 binary)
Coefficient statistics:
  Matrix range     [1e-02, 5e+03]
  QMatrix range    [1e+00, 1e+00]
  QLMatrix range   [1e+00, 1e+00]
  Objective range  [1e+00, 2e+01]
  Bounds range     [1e+00, 1e+00]
  RHS range        [1e+00, 5e+03]
  QRHS range       [1e+00, 2e+00]
Presolve removed 77483 rows and 40962 columns (presolve time = 6s) ...
Presolve removed 80796 rows and 42985 columns (presolve time = 11s) ...
Presolve removed 83295 rows and 44521 columns (presolve time = 15s) ...
Presolve removed 83363 rows and 44557 columns (presolve time = 27s) ...
Presolve removed 83668 rows and 45668 columns (presolve time = 38s) ...
Presolve removed 84616 rows and 45668 columns (presolve time = 42s) ...
Presolve removed 84626 rows and 45668 columns (presolve time = 45s) ...
Presolve removed 85621 rows and 48316 columns (presolve time = 50s) ...
Presolve removed 85621 rows and 48316 columns (presolve time = 55s) ...
Presolve removed 85621 rows and 48316 columns (presolve time = 60s) ...
Presolve removed 85621 rows and 48316 columns (presolve time = 65s) ...
Presolve removed 85621 rows and 48316 columns (presolve time = 70s) ...
Presolve removed 85621 rows and 48316 columns (presolve time = 75s) ...
Presolve removed 85621 rows and 48316 columns (presolve time = 80s) ...
Presolve removed 85621 rows and 48316 columns (presolve time = 85s) ...
Presolve removed 85621 rows and 48316 columns (presolve time = 90s) ...
Presolve removed 85621 rows and 48316 columns (presolve time = 95s) ...
Presolve removed 85621 rows and 48316 columns (presolve time = 100s) ...
Presolve removed 85621 rows and 48316 columns (presolve time = 105s) ...
Presolve removed 85621 rows and 48316 columns (presolve time = 110s) ...
Presolve removed 85621 rows and 48316 columns (presolve time = 115s) ...
Presolve removed 85621 rows and 48316 columns (presolve time = 120s) ...
Presolve removed 85621 rows and 48316 columns (presolve time = 125s) ...
Presolve removed 93204 rows and 50493 columns (presolve time = 131s) ...
Presolve removed 96474 rows and 51918 columns (presolve time = 136s) ...
Presolve removed 96781 rows and 52099 columns (presolve time = 140s) ...
Presolve removed 97374 rows and 52099 columns (presolve time = 150s) ...
Presolve removed 97374 rows and 52247 columns (presolve time = 150s) ...
Presolve removed 97430 rows and 52303 columns (presolve time = 156s) ...
Presolve removed 99198 rows and 52303 columns (presolve time = 160s) ...
Presolve removed 99631 rows and 52303 columns (presolve time = 165s) ...
Presolve removed 99631 rows and 52476 columns (presolve time = 170s) ...
Presolve removed 99631 rows and 52476 columns (presolve time = 175s) ...
Presolve removed 99631 rows and 52476 columns (presolve time = 180s) ...
Presolve removed 99631 rows and 52476 columns (presolve time = 185s) ...
Presolve removed 99631 rows and 52476 columns (presolve time = 190s) ...
Presolve removed 99631 rows and 52476 columns (presolve time = 195s) ...
Presolve removed 99631 rows and 52476 columns (presolve time = 200s) ...
Presolve removed 99631 rows and 52476 columns (presolve time = 205s) ...
Presolve removed 99631 rows and 52476 columns (presolve time = 210s) ...
Presolve removed 99631 rows and 52476 columns (presolve time = 215s) ...
Presolve removed 99631 rows and 52476 columns (presolve time = 220s) ...
Presolve removed 99631 rows and 52476 columns (presolve time = 225s) ...
Presolve removed 99631 rows and 52476 columns (presolve time = 230s) ...
Presolve removed 99631 rows and 52476 columns (presolve time = 235s) ...
Presolve removed 99631 rows and 53154 columns (presolve time = 240s) ...
Presolve removed 106804 rows and 57146 columns (presolve time = 247s) ...
Presolve removed 107584 rows and 57406 columns (presolve time = 250s) ...
Presolve removed 107584 rows and 57406 columns (presolve time = 255s) ...
Presolve removed 108836 rows and 57406 columns (presolve time = 267s) ...
Presolve removed 108863 rows and 57677 columns (presolve time = 276s) ...
Presolve removed 111373 rows and 57677 columns (presolve time = 281s) ...
Presolve removed 111373 rows and 57677 columns (presolve time = 285s) ...
Presolve removed 111443 rows and 57677 columns (presolve time = 290s) ...
Presolve removed 111443 rows and 57677 columns (presolve time = 295s) ...
Presolve removed 111443 rows and 57677 columns (presolve time = 300s) ...
Presolve removed 111443 rows and 57677 columns (presolve time = 305s) ...
Presolve removed 111443 rows and 57677 columns (presolve time = 310s) ...
Presolve removed 111443 rows and 57677 columns (presolve time = 315s) ...
Presolve removed 111443 rows and 57677 columns (presolve time = 320s) ...
Presolve removed 111443 rows and 57677 columns (presolve time = 325s) ...
Presolve removed 111443 rows and 57677 columns (presolve time = 330s) ...
Presolve removed 111443 rows and 57677 columns (presolve time = 335s) ...
Presolve removed 111443 rows and 57677 columns (presolve time = 340s) ...
Presolve removed 111443 rows and 57677 columns (presolve time = 345s) ...
Presolve removed 111443 rows and 57677 columns (presolve time = 350s) ...
Presolve removed 111443 rows and 57677 columns (presolve time = 355s) ...
Presolve removed 111664 rows and 57677 columns (presolve time = 362s) ...
Presolve removed 111664 rows and 57677 columns (presolve time = 372s) ...
Presolve removed 111675 rows and 57698 columns (presolve time = 379s) ...
Presolve removed 111675 rows and 57698 columns (presolve time = 380s) ...
Presolve removed 111682 rows and 57698 columns (presolve time = 385s) ...
Presolve removed 111780 rows and 57698 columns (presolve time = 390s) ...
Presolve removed 111780 rows and 57698 columns (presolve time = 395s) ...
Presolve removed 111780 rows and 57698 columns (presolve time = 400s) ...
Presolve removed 111780 rows and 57698 columns (presolve time = 405s) ...
Presolve removed 111780 rows and 57698 columns (presolve time = 410s) ...
Presolve removed 111780 rows and 57698 columns (presolve time = 415s) ...
Presolve removed 111780 rows and 57698 columns (presolve time = 420s) ...
Presolve removed 111780 rows and 57698 columns (presolve time = 425s) ...
Presolve removed 111780 rows and 57698 columns (presolve time = 430s) ...
Presolve removed 111780 rows and 57698 columns (presolve time = 435s) ...
Presolve removed 111780 rows and 57698 columns (presolve time = 440s) ...
Presolve removed 111780 rows and 57698 columns (presolve time = 445s) ...
Presolve removed 111780 rows and 57698 columns (presolve time = 450s) ...
Presolve removed 111780 rows and 57814 columns (presolve time = 487s) ...
Presolve removed 111780 rows and 60069 columns (presolve time = 497s) ...
Presolve removed 111780 rows and 60845 columns (presolve time = 507s) ...
Presolve removed 117839 rows and 61497 columns (presolve time = 510s) ...
Presolve removed 117839 rows and 61497 columns (presolve time = 522s) ...
Presolve removed 135764 rows and 61497 columns (presolve time = 530s) ...
Presolve removed 135764 rows and 61591 columns (presolve time = 530s) ...
Presolve removed 136349 rows and 62176 columns (presolve time = 538s) ...
Presolve removed 136349 rows and 62176 columns (presolve time = 540s) ...
Presolve removed 136467 rows and 62176 columns (presolve time = 545s) ...
Presolve removed 136566 rows and 62176 columns (presolve time = 550s) ...
Presolve removed 136566 rows and 62176 columns (presolve time = 555s) ...
Presolve removed 136566 rows and 62176 columns (presolve time = 560s) ...
Presolve removed 136566 rows and 62176 columns (presolve time = 565s) ...
Presolve removed 136566 rows and 62176 columns (presolve time = 570s) ...
Presolve removed 136566 rows and 62176 columns (presolve time = 575s) ...
Presolve removed 136566 rows and 62176 columns (presolve time = 580s) ...
Presolve removed 138420 rows and 62501 columns (presolve time = 585s) ...
Presolve removed 138420 rows and 62501 columns (presolve time = 592s) ...
Presolve removed 138420 rows and 62511 columns (presolve time = 595s) ...
Presolve removed 138500 rows and 62591 columns (presolve time = 600s) ...
Presolve removed 138501 rows and 62591 columns (presolve time = 605s) ...
Presolve removed 138512 rows and 62591 columns (presolve time = 610s) ...
Presolve removed 138512 rows and 62591 columns (presolve time = 615s) ...
Presolve removed 138512 rows and 62591 columns (presolve time = 620s) ...
Presolve removed 138512 rows and 62591 columns (presolve time = 625s) ...
Presolve removed 138512 rows and 62591 columns (presolve time = 630s) ...
Presolve removed 138512 rows and 62591 columns (presolve time = 635s) ...
Presolve removed 138512 rows and 62591 columns (presolve time = 640s) ...
Presolve removed 140873 rows and 62591 columns (presolve time = 670s) ...
Presolve removed 142172 rows and 63890 columns (presolve time = 687s) ...
Presolve removed 130527 rows and 53747 columns
Presolve time: 686.89s
Presolved: 201773 rows, 100506 columns, 12288166 nonzeros
Variable types: 0 continuous, 100506 integer (94846 binary)

Deterministic concurrent LP optimizer: primal simplex, dual simplex, and barrier
Showing barrier log only...

Presolve removed 259 rows and 259 columns (presolve time = 5s) ...
Presolve removed 259 rows and 259 columns (presolve time = 10s) ...
Presolve removed 259 rows and 259 columns (presolve time = 15s) ...
Presolve removed 259 rows and 259 columns (presolve time = 20s) ...
Presolve removed 259 rows and 259 columns (presolve time = 25s) ...
Presolve removed 259 rows and 259 columns (presolve time = 30s) ...
Presolve removed 259 rows and 259 columns (presolve time = 35s) ...
Presolve removed 259 rows and 259 columns (presolve time = 40s) ...
Presolve removed 259 rows and 259 columns (presolve time = 45s) ...
Presolve removed 259 rows and 259 columns (presolve time = 50s) ...
Presolve removed 259 rows and 259 columns (presolve time = 55s) ...
Presolve removed 259 rows and 259 columns (presolve time = 60s) ...
Presolve removed 259 rows and 259 columns
Presolved: 201514 rows, 100247 columns, 12287481 nonzeros

Root barrier log...

Elapsed ordering time = 5s
Elapsed ordering time = 10s
Elapsed ordering time = 15s
Elapsed ordering time = 20s
Ordering time: 42.44s

Barrier statistics:
 AA' NZ     : 9.360e+07
 Factor NZ  : 3.162e+08 (roughly 2.7 GBytes of memory)
 Factor Ops : 6.252e+11 (roughly 1 second per iteration)
 Threads    : 61

                  Objective                Residual
Iter       Primal          Dual         Primal    Dual     Compl     Time
   0  -8.87125641e+05 -4.12082065e+04  3.27e+03 1.20e+00  2.60e+01   819s
   1  -6.02094438e+05 -5.92307344e+04  2.23e+03 2.78e+00  1.58e+01   822s
   2  -3.87161371e+05 -7.36170696e+04  1.44e+03 1.33e+00  9.29e+00   824s
   3  -1.87429796e+05 -8.79423707e+04  6.98e+02 5.43e-01  4.67e+00   827s
   4  -1.15163262e+05 -8.41147618e+04  4.28e+02 6.03e-02  2.47e+00   830s
   5  -3.51457300e+04 -6.56722481e+04  1.29e+02 1.94e-02  8.12e-01   832s
   6  -1.78805447e+04 -4.07886173e+04  6.54e+01 5.02e-03  4.01e-01   834s
   7  -1.11389971e+04 -2.91701983e+04  4.07e+01 2.60e-03  2.46e-01   837s
   8  -7.11690237e+03 -1.71692886e+04  2.61e+01 8.72e-15  1.40e-01   839s
   9  -4.17905807e+03 -9.68449907e+03  1.55e+01 6.40e-15  7.34e-02   842s
  10  -2.24700114e+03 -6.85736817e+03  8.57e+00 5.44e-15  4.15e-02   844s
  11  -1.10442086e+03 -4.82653595e+03  4.47e+00 2.38e-15  2.32e-02   846s
  12  -5.38142401e+02 -2.67282668e+03  2.44e+00 1.40e-15  1.15e-02   849s
  13  -1.29525689e+02 -1.07141776e+03  9.42e-01 1.40e-15  4.10e-03   851s
  14   3.40648386e+01 -3.31056796e+02  2.91e-01 1.02e-15  1.31e-03   854s
  15   5.02178701e+01 -1.30765774e+02  2.03e-01 4.56e-16  6.77e-04   856s
  16   5.79545422e+01 -5.56747266e+01  1.53e-01 2.71e-16  4.38e-04   859s
  17   6.23747124e+01 -1.08724245e+01  1.16e-01 4.86e-16  2.93e-04   861s
  18   6.39339039e+01  1.19262295e+01  9.98e-02 3.54e-16  2.21e-04   864s
  19   6.49845054e+01  2.44241777e+01  8.60e-02 4.22e-16  1.78e-04   866s
  20   6.52813782e+01  3.33961095e+01  8.21e-02 7.05e-16  1.51e-04   868s
  21   6.57118661e+01  4.21346515e+01  6.90e-02 7.75e-17  1.18e-04   871s
  22   6.61164819e+01  4.87986301e+01  5.52e-02 2.45e-16  8.97e-05   874s
  23   6.62262052e+01  5.20782345e+01  4.19e-02 4.88e-17  7.05e-05   876s
  24   6.67061591e+01  5.65614261e+01  3.15e-02 5.61e-17  5.15e-05   879s
  25   6.69582711e+01  6.01152015e+01  2.26e-02 4.52e-17  3.57e-05   882s
  26   6.73938421e+01  6.17188102e+01  1.76e-02 6.23e-17  2.87e-05   885s
  27   6.78372567e+01  6.44761579e+01  1.17e-02 8.57e-17  1.80e-05   887s
  28   6.80182231e+01  6.54605521e+01  8.72e-03 1.75e-16  1.35e-05   890s
  29   6.80717635e+01  6.65816814e+01  8.07e-03 1.94e-16  1.02e-05   892s
  30   6.82390319e+01  6.70827696e+01  5.43e-03 6.16e-17  7.27e-06   895s
  31   6.83213578e+01  6.77638514e+01  4.39e-03 9.04e-17  4.90e-06   898s
  32   6.84381762e+01  6.80788783e+01  3.14e-03 3.76e-17  3.41e-06   900s
  33   6.84738927e+01  6.82162179e+01  2.73e-03 1.11e-16  2.82e-06   903s
  34   6.85454848e+01  6.83789719e+01  2.04e-03 4.83e-17  2.04e-06   906s
  35   6.85858927e+01  6.84749993e+01  1.73e-03 1.20e-16  1.65e-06   908s
  36   6.86294033e+01  6.85163385e+01  1.41e-03 3.46e-17  1.40e-06   911s
  37   6.86670803e+01  6.85900445e+01  1.15e-03 1.66e-16  1.10e-06   914s
  38   6.87034198e+01  6.86339253e+01  8.73e-04 3.79e-17  8.66e-07   916s
  39   6.87175330e+01  6.86879864e+01  6.89e-04 2.17e-16  6.19e-07   919s
  40   6.87390703e+01  6.87475929e+01  5.00e-04 5.02e-17  3.73e-07   922s
  41   6.87692650e+01  6.87700652e+01  3.04e-04 1.31e-16  2.38e-07   925s
  42   6.87904630e+01  6.87890436e+01  1.72e-04 7.74e-17  1.40e-07   928s
  43   6.87965606e+01  6.87940952e+01  1.28e-04 7.45e-17  1.07e-07   931s
  44   6.88025325e+01  6.88008167e+01  9.33e-05 8.70e-17  7.80e-08   933s
  45   6.88080785e+01  6.88063812e+01  6.08e-05 4.13e-17  5.23e-08   935s
  46   6.88101695e+01  6.88093215e+01  4.85e-05 3.27e-17  4.04e-08   938s
  47   6.88130812e+01  6.88136009e+01  3.08e-05 1.19e-16  2.30e-08   940s
  48   6.88148936e+01  6.88163096e+01  1.88e-05 3.13e-17  1.12e-08   943s
  49   6.88159748e+01  6.88172004e+01  1.28e-05 1.84e-16  6.97e-09   946s
  50   6.88165495e+01  6.88175277e+01  9.58e-06 1.42e-16  5.07e-09   948s
  51   6.88170245e+01  6.88176473e+01  6.95e-06 5.27e-17  3.90e-09   950s
  52   6.88173145e+01  6.88178266e+01  5.34e-06 9.85e-17  2.91e-09   952s
  53   6.88175797e+01  6.88180156e+01  3.86e-06 6.24e-17  1.93e-09   955s
  54   6.88179245e+01  6.88182060e+01  1.79e-06 6.11e-17  6.95e-10   958s
  55   6.88181429e+01  6.88182514e+01  6.54e-07 1.90e-16  2.40e-10   961s
  56   6.88181920e+01  6.88182554e+01  3.97e-07 6.62e-17  1.51e-10   964s
  57   6.88182184e+01  6.88182587e+01  2.58e-07 1.66e-16  1.01e-10   966s
  58   6.88182630e+01  6.88182635e+01  2.67e-08 3.55e-15  1.76e-11   968s

Barrier solved model in 58 iterations and 968.42 seconds
Optimal objective 6.88182630e+01


Root crossover log...

   11833 DPushes remaining with DInf 0.0000000e+00               971s
       0 DPushes remaining with DInf 0.0000000e+00               972s

   53690 PPushes remaining with PInf 1.0458546e-04               972s
   24640 PPushes remaining with PInf 1.9472284e-05               975s
   17646 PPushes remaining with PInf 1.5044272e-05               980s
   13709 PPushes remaining with PInf 1.5044272e-05               985s
   10525 PPushes remaining with PInf 1.5044272e-05               991s
    8543 PPushes remaining with PInf 1.5044272e-05               995s
    6658 PPushes remaining with PInf 1.0862155e-05              1000s
    4844 PPushes remaining with PInf 1.0862155e-05              1005s
    3327 PPushes remaining with PInf 1.5992596e-05              1010s
    2162 PPushes remaining with PInf 7.5529616e-06              1016s
    1073 PPushes remaining with PInf 0.0000000e+00              1022s
     388 PPushes remaining with PInf 0.0000000e+00              1025s
       0 PPushes remaining with PInf 5.0966196e-01              1028s

  Push phase complete: Pinf 5.0966196e-01, Dinf 5.8758789e-04   1028s


Root simplex log...

Iteration    Objective       Primal Inf.    Dual Inf.      Time
   55409    6.8818267e+01   0.000000e+00   5.875879e-04   1028s
   55598    6.8818267e+01   0.000000e+00   0.000000e+00   1032s
   55598    6.8818267e+01   0.000000e+00   0.000000e+00   1033s
Concurrent spin time: 24.37s

Solved with barrier

Root relaxation: objective 6.881827e+01, 55598 iterations, 365.19 seconds

    Nodes    |    Current Node    |     Objective Bounds      |     Work
 Expl Unexpl |  Obj  Depth IntInf | Incumbent    BestBd   Gap | It/Node Time

     0     0   68.81827    0 13244          -   68.81827      -     - 2560s
     0     0   73.87311    0 13567          -   73.87311      -     - 130105s
     0     0   77.68837    0 13607          -   77.68837      -     - 237187s
     0     0   77.83752    0 14016          -   77.83752      -     - 240269s
     0     0   77.87013    0 14053          -   77.87013      -     - 241877s
     0     0   77.87219    0 13973          -   77.87219      -     - 242324s
     0     0   80.74624    0 14278          -   80.74624      -     - 301489s
     0     0   81.78961    0 14374          -   81.78961      -     - 336480s
     0     0   81.95874    0 14402          -   81.95874      -     - 341006s
     0     0   81.98515    0 14601          -   81.98515      -     - 342348s
